0 8 6 5 2 1 3 3 2 7 1 2 2 9 -1 
9 6 1 7 0 -1 5 9 -1 3 8 4 2 8 -1 
0 4 7 9 1 7 7 5 0 9 1 3 4 8 -1 
6 6 2 7 3 1 7 -1 2 6 6 4 7 7 -1 
7 0 7 9 1 9 9 7 5 0 4 0 9 5 -1 
7 6 2 2 0 -1 -1 0 1 4 3 9 2 -1 -1 
1 3 0 3 6 -1 3 -1 7 8 8 9 6 7 -1 
4 9 5 4 0 7 4 4 3 9 0 -1 5 -1 -1 
1 9 0 2 3 2 0 5 1 8 2 9 7 5 -1 
4 6 9 8 8 9 3 -1 5 1 0 9 7 4 -1 
5 9 2 2 0 1 4 3 6 5 6 6 6 4 -1 
9 9 2 7 0 7 7 3 1 1 8 4 8 6 -1 
7 0 6 1 4 2 2 5 5 9 8 4 -1 -1 -1 
2 3 5 7 7 -1 4 2 4 9 0 8 5 2 -1 
2 -1 2 9 2 6 1 0 8 4 7 5 0 3 -1 
